&CONTROL
/
&SYSTEM
   ntyp             = 1
   nat              = 128
   ibrav            = 0
/
&ELECTRONS
/
&IONS
/
&CELL
/

ATOMIC_SPECIES
Zr 91.224 Zr_dummy.UPF

K_POINTS gamma

CELL_PARAMETERS angstrom
14.07000000000000 0.00000000000000 0.00000000000000
0.00000000000000 14.07000000000000 0.00000000000000
0.00000000000000 0.00000000000000 14.07000000000000

ATOMIC_POSITIONS angstrom
Zr 0.0016243454 -0.0006117564 -0.0005281718 
Zr 1.7576770314 1.7596154076 1.7564484613 
Zr 0.0017448118 -0.0007612069 3.5178190391 
Zr 1.7585006296 1.7602121079 5.2741898593 
Zr -0.0003224172 -0.0003840544 7.0361337694 
Zr 1.7576501087 1.7585775718 8.7928721416 
Zr 0.0000422137 0.0005828152 10.5513993808 
Zr 1.7598947237 1.7596515907 12.3117524943 
Zr 0.0009008559 3.5168162721 -0.0001228902 
Zr 1.7578142306 5.2759821119 1.7592803555 
Zr -0.0006916608 3.5171032465 3.5168128273 
Zr 1.7579047944 5.2755787539 5.2762373354 
Zr -0.0011173103 3.5177344157 7.0366598022 
Zr 1.7594920442 5.2760581644 8.7928623710 
Zr -0.0007471583 3.5191924546 10.5525508078 
Zr 1.7581130044 5.2764409155 12.3133502551 
Zr 0.0001201590 7.0356172031 0.0003001703 
Zr 1.7583977502 8.7926074818 1.7584006573 
Zr -0.0002088942 7.0355866232 3.5183389834 
Zr 1.7596811021 8.7940355873 5.2771351412 
Zr -0.0007543979 7.0362528682 7.0355129298 
Zr 1.7584519072 8.7942385181 8.7936744283 
Zr 0.0011316294 7.0365198168 10.5546855754 
Zr 1.7573535037 8.7923058862 12.3107455341 
Zr 0.0001600371 10.5533761689 0.0003156349 
Zr 1.7567277988 12.3109437960 1.7595779746 
Zr 0.0002300947 10.5532620112 3.5172776719 
Zr 1.7585492419 12.3114365614 5.2766600516 
Zr 0.0001982997 10.5526190086 7.0343293377 
Zr 1.7591275638 12.3113718213 8.7948794839 
Zr 0.0011989179 10.5526851564 10.5521247150 
Zr 1.7581112696 12.3116734944 12.3113273401 
Zr 3.5171561463 0.0000435969 -0.0006200008 
Zr 5.2769480320 1.7583028714 1.7599745077 
Zr 3.5179034916 0.0005935785 3.5164050882 
Zr 5.2764193824 1.7594905565 5.2752962994 
Zr 3.5172337815 0.0000326145 7.0336268827 
Zr 5.2765651594 1.7595961606 8.7928904841 
Zr 3.5178505460 -0.0013122834 10.5524613045 
Zr 5.2746342276 1.7598714177 12.3116589005 
Zr 3.5174753830 3.5167248384 0.0012737559 
Zr 5.2782171017 5.2743920181 1.7599861640 
Zr 3.5191276508 3.5178380117 3.5163007320 
Zr 5.2771133453 5.2760690797 5.2756460794 
Zr 3.5162699419 3.5180505375 7.0357928069 
Zr 5.2756264693 5.2767705763 8.7926056586 
Zr 3.5183018610 3.5175465673 10.5523134302 
Zr 5.2761482541 5.2771188862 12.3120004116 
Zr 3.5180294653 7.0351377012 0.0000778211 
Zr 5.2768683803 8.7939824946 1.7594325514 
Zr 3.5171898832 7.0325651622 3.5185388246 
Zr 5.2784369796 8.7941913644 5.2761498448 
Zr 3.5173635553 7.0348809458 7.0350174094 
Zr 5.2751279813 8.7932329055 8.7927529732 
Zr 3.5177487992 7.0347033588 10.5529952113 
Zr 5.2760752968 8.7947363352 12.3114635339 
Zr 3.5196906997 10.5506036391 -0.0006469167 
Zr 5.2771514869 12.3137783257 1.7585013652 
Zr 3.5175436690 10.5522736858 3.5188314571 
Zr 5.2759626921 12.3119300698 5.2759301984 
Zr 3.5162274412 10.5528135477 7.0355031848 
Zr 5.2775432259 12.3111395530 8.7931326379 
Zr 3.5180627611 10.5527407371 10.5527806651 
Zr 5.2761768873 12.3124103386 12.3116194927 
Zr 7.0369046587 0.0011110567 0.0006590498 
Zr 8.7921225617 1.7593523193 1.7591702822 
Zr 7.0358109517 0.0010444421 3.5170991218 
Zr 8.7945740056 1.7581876946 5.2782048781 
Zr 7.0336680483 -0.0017606886 7.0333492787 
Zr 8.7928594444 1.7576308846 8.7957060789 
Zr 7.0346735005 -0.0013426758 10.5536143830 
Zr 8.7931634761 1.7575131466 12.3121258389 
Zr 7.0356233622 3.5170650433 0.0014075400 
Zr 8.7938791016 5.2778669496 1.7592527409 
Zr 7.0365588055 3.5176094027 3.5162802556 
Zr 8.7961993686 5.2757042258 5.2760511621 
Zr 7.0342996015 3.5172966056 7.0352426694 
Zr 8.7939518302 5.2769110203 8.7955421582 
Zr 7.0348795354 3.5162668793 10.5513176819 
Zr 8.7930842455 5.2745758042 12.3120750298 
Zr 7.0345017864 7.0346890150 -0.0000018915 
Zr 8.7923533796 8.7928886836 1.7594247115 
Zr 7.0356185391 7.0345568281 3.5193105349 
Zr 8.7924442731 8.7934050128 5.2760191603 
Zr 7.0322069150 7.0369375288 7.0353663320 
Zr 8.7927054106 8.7958011734 8.7943356620 
Zr 7.0354295261 7.0343930016 10.5526062227 
Zr 8.7922243197 8.7945450261 12.3108755617 
Zr 7.0351340482 10.5537020549 0.0002847481 
Zr 8.7940124674 12.3115264993 1.7580167284 
Zr 7.0358360047 10.5540433591 3.5182588057 
Zr 8.7946349088 12.3103727185 5.2753822128 
Zr 7.0335591240 10.5537322531 7.0347458201 
Zr 8.7951498439 12.3104680883 8.7933124910 
Zr 7.0350954251 10.5534214501 10.5525607502 
Zr 8.7939611248 12.3112665276 12.3114271877 
Zr 10.5513835300 0.0000809271 -0.0001865790 
Zr 12.3111931755 1.7592423366 1.7580693219 
Zr 10.5524154920 -0.0002973619 3.5179173020 
Zr 12.3120347707 1.7577945747 5.2768359104 
Zr 10.5545657833 -0.0014711569 7.0341698281 
Zr 12.3103694224 1.7584709023 8.7953728491 
Zr 10.5525133527 -0.0006946936 10.5531218035 
Zr 12.3106501955 1.7598734122 12.3115552670 
Zr 10.5538887794 3.5168386558 0.0030308571 
Zr 12.3120745846 5.2769045802 1.7586988116 
Zr 10.5517744029 3.5166322313 3.5173640227 
Zr 12.3104527302 5.2765326757 5.2754239026 
Zr 10.5531210827 3.5184561217 7.0342941595 
Zr 12.3124426861 5.2760120581 8.7949052879 
Zr 10.5529381663 3.5186223283 10.5515029802 
Zr 12.3111432060 5.2777014293 12.3106319632 
Zr 10.5504627988 7.0330574108 -0.0025064407 
Zr 12.3091358361 8.7933383608 1.7600285281 
Zr 10.5520577707 7.0353235274 3.5173900085 
Zr 12.3112585489 8.7935818012 5.2760758197 
Zr 10.5529611641 7.0338240173 7.0360101272 
Zr 12.3121700179 8.7935549427 8.7945553934 
Zr 10.5517986556 7.0344627770 10.5526562639 
Zr 12.3110597790 8.7933012620 12.3105775520 
Zr 10.5519425053 10.5534391687 -0.0019433234 
Zr 12.3116024944 12.3110135630 1.7594778135 
Zr 10.5530150736 10.5497174655 3.5180846466 
Zr 12.3115742742 12.3112718628 5.2757813262 
Zr 10.5533532812 10.5520869707 7.0368347176 
Zr 12.3118143829 12.3133878281 8.7929644660 
Zr 10.5507440744 10.5532147896 10.5533527041 
Zr 12.3112853601 12.3097112068 12.3108021048 

