&CONTROL
/
&SYSTEM
   ntyp             = 1
   nat              = 128
   ibrav            = 0
/
&ELECTRONS
/
&IONS
/
&CELL
/

ATOMIC_SPECIES
Zr 91.224 Zr_dummy.UPF

K_POINTS gamma

CELL_PARAMETERS angstrom
14.07000000000000 0.00000000000000 0.00000000000000
0.00000000000000 14.07000000000000 0.00000000000000
0.00000000000000 0.00000000000000 14.07000000000000

ATOMIC_POSITIONS angstrom
Zr 0.0017640523 0.0004001572 0.0009787380 
Zr 1.7609908932 1.7606175580 1.7577727221 
Zr 0.0009500884 -0.0001513572 3.5173967811 
Zr 1.7591605985 1.7588940436 5.2777042735 
Zr 0.0007610377 0.0001216750 7.0354438632 
Zr 1.7590836743 1.7602440791 8.7935448417 
Zr 0.0003130677 -0.0008540957 10.5499470102 
Zr 1.7594036186 1.7596144362 12.3105078350 
Zr 0.0022697546 3.5160456343 0.0000457585 
Zr 1.7585628161 5.2777827792 1.7602193588 
Zr 0.0001549474 3.5178781625 3.5166122143 
Zr 1.7567692035 5.2759020879 5.2764063490 
Zr 0.0012302907 3.5187023798 7.0346126732 
Zr 1.7584476972 5.2752014470 8.7923299821 
Zr -0.0017062702 3.5194507754 10.5519903478 
Zr 1.7583119257 5.2749972046 12.3120274904 
Zr -0.0016138978 7.0347872597 -0.0008954666 
Zr 1.7591369025 8.7932391949 1.7575693678 
Zr -0.0000281822 7.0354283319 3.5175665172 
Zr 1.7590524719 8.7931156779 5.2758872588 
Zr -0.0006724604 7.0346404468 7.0341868537 
Zr 1.7570237174 8.7939274261 8.7933482191 
Zr -0.0016301983 7.0354627823 10.5515927016 
Zr 1.7588019454 8.7944790906 12.3113789829 
Zr 0.0011394007 10.5512651742 0.0004023416 
Zr 1.7580651899 12.3103792029 1.7581711503 
Zr -0.0003115525 10.5525561653 3.5163348502 
Zr 1.7596508265 12.3117156624 5.2747137563 
Zr 0.0014882522 10.5543958892 7.0361787796 
Zr 1.7585700752 12.3101792474 8.7948044517 
Zr -0.0004031769 10.5537224451 10.5527082750 
Zr 1.7597266390 12.3116063664 12.3119565732 
Zr 3.5175105000 0.0017858705 0.0001269121 
Zr 5.2766519894 1.7606331507 1.7574022409 
Zr 3.5162295150 0.0009693967 3.5163268766 
Zr 5.2781936212 1.7583363810 5.2755025452 
Zr 3.5194229420 0.0014805148 7.0368675590 
Zr 5.2771560447 1.7578887743 8.7956600650 
Zr 3.5172319966 0.0008024564 10.5534472520 
Zr 5.2760949899 1.7593640794 12.3121722067 
Zr 3.5178764255 3.5164005992 0.0002982382 
Zr 5.2775763859 5.2755554321 1.7586003655 
Zr 3.5170648464 3.5193492637 3.5181722948 
Zr 5.2766574618 5.2754800839 5.2767892492 
Zr 3.5168256673 3.5175318306 7.0343641539 
Zr 5.2769264333 5.2768265908 8.7935417012 
Zr 3.5178960067 3.5164069385 10.5510087424 
Zr 5.2766893917 5.2764166735 12.3118850314 
Zr 3.5198831448 7.0359444795 -0.0009128222 
Zr 5.2773670163 8.7924340926 1.7582884154 
Zr 3.5174317584 7.0367133427 3.5167552452 
Zr 5.2754235615 8.7936515475 5.2755865217 
Zr 3.5186266359 7.0339200685 7.0338525313 
Zr 5.2758121800 8.7932519675 8.7956795321 
Zr 3.5184494208 7.0350875512 10.5512745645 
Zr 5.2770943630 8.7927497847 12.3097052289 
Zr 3.5186880298 10.5528169426 0.0009208588 
Zr 5.2765687277 12.3121068306 1.7580989744 
Zr 3.5164657572 10.5531815945 3.5166965903 
Zr 5.2755604502 12.3107944675 5.2762674792 
Zr 3.5171460061 10.5511250487 7.0343563816 
Zr 5.2740265968 12.3118752315 8.7921479423 
Zr 3.5163956167 10.5525521651 10.5517604370 
Zr 5.2777930146 12.3099571431 12.3115170509 
Zr 7.0349607172 -0.0011680935 0.0005232767 
Zr 8.7935784537 1.7595217906 1.7595735042 
Zr 7.0371632359 0.0013365279 3.5171308182 
Zr 8.7935106208 1.7598496596 5.2769052637 
Zr 7.0356401315 -0.0016169560 7.0349756739 
Zr 8.7930119691 1.7590299246 8.7936518496 
Zr 7.0359101789 0.0003172182 10.5532863280 
Zr 8.7932835809 1.7578055537 12.3108399503 
Zr 7.0349829796 3.5178791517 0.0022593090 
Zr 8.7937077428 5.2752940550 1.7584040182 
Zr 7.0345364040 3.5179814815 3.5159592030 
Zr 8.7938132620 5.2764065065 5.2764821810 
Zr 7.0344026839 3.5172620783 7.0335759391 
Zr 8.7932566801 5.2757071385 8.7941660500 
Zr 7.0338438176 3.5182811981 10.5539944845 
Zr 8.7916800150 5.2766762587 12.3119269080 
Zr 7.0343625630 7.0346027282 -0.0001328806 
Zr 8.7934522091 8.7934409870 1.7570739962 
Zr 7.0361523316 7.0360796186 3.5166866357 
Zr 8.7922835757 8.7942710649 5.2756742120 
Zr 7.0351419532 7.0346806716 7.0356915388 
Zr 8.7944447491 8.7930244026 8.7923666360 
Zr 7.0334170616 7.0356103794 10.5513111407 
Zr 8.7932431836 8.7931536860 12.3111974327 
Zr 7.0330637202 10.5526887786 0.0005238910 
Zr 8.7938384221 12.3109391138 1.7588474002 
Zr 7.0353990463 10.5497274072 3.5194559123 
Zr 8.7941400933 12.3105975914 5.2758590466 
Zr 7.0354937418 10.5523838961 7.0329693155 
Zr 8.7958144929 12.3111394593 8.7947701727 
Zr 7.0343079502 10.5540363771 10.5527863437 
Zr 8.7943588438 12.3102047466 12.3124611453 
Zr 10.5531898182 0.0013018462 -0.0006280876 
Zr 12.3107689729 1.7610539167 1.7576899842 
Zr 10.5523640503 0.0011368914 3.5175977250 
Zr 12.3118329537 1.7583505510 5.2766200559 
Zr 10.5511934731 0.0016581307 7.0348818360 
Zr 12.3105698218 1.7594163831 8.7932892802 
Zr 10.5511657415 -0.0013467175 10.5531937732 
Zr 12.3110904266 1.7586162984 12.3123277438 
Zr 10.5513731742 3.5167693222 -0.0003848798 
Zr 12.3113443516 5.2762078285 1.7584631128 
Zr 10.5524383736 3.5173926947 3.5167803956 
Zr 12.3104370070 5.2765245164 5.2753590849 
Zr 10.5513426447 3.5171877077 7.0348423330 
Zr 12.3135067235 5.2755452997 8.7946932607 
Zr 10.5532471883 3.5163110550 10.5532732530 
Zr 12.3100661194 5.2735908278 12.3118563195 
Zr 10.5507441094 7.0354509345 -0.0006840109 
Zr 12.3129095508 8.7948185094 1.7582966142 
Zr 10.5518121624 7.0337859226 3.5170590774 
Zr 12.3109696445 8.7933853065 5.2764067039 
Zr 10.5530785215 7.0353496545 7.0342358561 
Zr 12.3098122085 8.7951145318 8.7930605508 
Zr 10.5518477064 7.0344788107 10.5506569304 
Zr 12.3107720260 8.7932703442 12.3118703583 
Zr 10.5531984571 10.5525037709 0.0009318484 
Zr 12.3115899650 12.3112343179 1.7589109282 
Zr 10.5523093465 10.5521051505 3.5172322665 
Zr 12.3101219887 12.3115304417 5.2752568764 
Zr 10.5533416313 10.5522505414 7.0350494950 
Zr 12.3117438368 12.3118933145 8.7921793766 
Zr 10.5522930963 10.5533801789 10.5508018942 
Zr 12.3116372805 12.3089944358 12.3102274932 

